NAME : netgen18-5_31
COMMENT : Generated using the function generateClusteredNetwork from the R-package netgen (Bossek,2015) - Number of clusters: 5
TYPE : TSP
DIMENSION : 18
EDGE_WEIGHT_TYPE : EUC_2D
NODE_COORD_SECTION
1 10.3328282698 81.2079015013
2 2.460040732 72.0803504069
3 11.3667001462 79.316539397
4 29.6376857082 10.383556158
5 26.6166138807 21.4174401235
6 32.0101227343 26.0506145802
7 96.2823187296 39.7971341249
8 94.7725168515 42.3877234577
9 98.0484030474 34.6431482513
10 83.5918972903 37.3350604403
11 85.5044969624 46.5912643015
12 92.8021888471 38.2383240764
13 59.2910876238 1.0661834561
14 63.4150435555 1.1826867149
15 59.3169755725 13.4007306935
16 43.6267235027 84.4245085928
17 49.8583621171 95.7598977177
18 53.4704618369 96.1870657843
EOF
